
Gurobi 6.0.4 (win64) logging started 06/18/15 17:38:44

Read LP format model from file E:\Eigene Dateien\Downloads\Michi shit\VRPTWMS2\instances\mip\fuel\N12-C_DV100-C_SV25_F5_9_No_1.lp
Reading time = 0.02 seconds
(null): 865 rows, 392 columns, 3639 nonzeros
Optimize a model with 865 rows, 392 columns and 3639 nonzeros
Model has 1728 quadratic constraints
Coefficient statistics:
  Matrix range    [1e+00, 1e+06]
  Objective range [2e+04, 1e+07]
  Bounds range    [1e+00, 1e+06]
  RHS range       [1e+00, 1e+06]
Presolve removed 134 rows and 66 columns
Presolve time: 0.08s
Presolved: 3007 rows, 1464 columns, 16734 nonzeros
Variable types: 1138 continuous, 326 integer (276 binary)
Found heuristic solution: objective 1.249714e+08

Root relaxation: objective 1.301250e+07, 257 iterations, 0.00 seconds

    Nodes    |    Current Node    |     Objective Bounds      |     Work
 Expl Unexpl |  Obj  Depth IntInf | Incumbent    BestBd   Gap | It/Node Time

     0     0 1.3013e+07    0   44 1.2497e+08 1.3013e+07  89.6%     -    0s
H    0     0                    8.399540e+07 1.3013e+07  84.5%     -    0s
     0     0 1.5915e+07    0   66 8.3995e+07 1.5915e+07  81.1%     -    0s
H    0     0                    7.389830e+07 1.5915e+07  78.5%     -    0s
     0     0 1.8548e+07    0   34 7.3898e+07 1.8548e+07  74.9%     -    0s
     0     0 2.0195e+07    0   55 7.3898e+07 2.0195e+07  72.7%     -    0s
     0     0 2.0195e+07    0   55 7.3898e+07 2.0195e+07  72.7%     -    0s
     0     0 2.0195e+07    0   49 7.3898e+07 2.0195e+07  72.7%     -    0s
H    0     0                    6.364150e+07 2.0195e+07  68.3%     -    0s
     0     2 2.0195e+07    0   49 6.3642e+07 2.0195e+07  68.3%     -    0s
H  120    55                    5.306880e+07 2.0423e+07  61.5%  15.3    0s
H  219    98                    5.302610e+07 2.0423e+07  61.5%  16.9    0s
H  452   162                    5.301740e+07 2.1489e+07  59.5%  16.4    0s
H  532   168                    4.291320e+07 2.1873e+07  49.0%  16.1    0s

Cutting planes:
  Learned: 7
  Cover: 350
  Implied bound: 260
  Clique: 4
  MIR: 14
  GUB cover: 14

Explored 6582 nodes (97898 simplex iterations) in 3.20 seconds
Thread count was 4 (of 4 available processors)

Optimal solution found (tolerance 1.00e-04)
Best objective 4.291320000000e+07, best bound 4.291320000000e+07, gap 0.0%
k_c1	1000000.0
k_c10	949998.0
k_c11	919997.0
k_c12	979999.0
k_c2	70000.0
k_c3	899996.0
k_c4	140001.0
k_c5	1000000.0
k_c6	50000.0
k_c7	140001.0
k_c8	50000.0
k_c9	190002.0
k_dN	-0.0
o_1	0.0
o_10	0.0
o_11	0.0
o_12	0.0
o_2	0.0
o_3	0.0
o_4	0.0
o_5	0.0
o_6	0.0
o_7	0.0
o_8	0.0
o_9	0.0
p_1	0.0
p_10	0.0
p_11	0.0
p_12	0.0
p_2	0.0
p_3	0.0
p_4	0.0
p_5	0.0
p_6	0.0
p_7	0.0
p_8	0.0
p_9	0.0
phi_c1	41972.0
phi_c10	37242.0
phi_c11	33712.0
phi_c12	19253.0
phi_c2	14189.0
phi_c3	18425.0
phi_c4	23930.0
phi_c5	31221.0
phi_c6	5519.0
phi_c7	25836.0
phi_c8	16926.0
phi_c9	32393.0
phi_d0	50000.0
phi_dN	-0.0
tauD_c1	200000.0
tauD_c10	247675.0
tauD_c11	200000.0
tauD_c12	751324.0
tauD_c2	773949.0
tauD_c3	450000.0
tauD_c4	650000.0
tauD_c5	450000.0
tauD_c6	800000.0
tauD_c7	697324.0
tauD_c8	816749.0
tauD_c9	450000.0
tauD_d0	-0.0
tauD_dN	1000000.0
tauS_c1	869749.0
tauS_c10	866024.0
tauS_c11	857499.0
tauS_c12	831324.0
tauS_c2	853949.0
tauS_c3	851225.0
tauS_c4	852449.0
tauS_c5	830774.0
tauS_c6	0.0
tauS_c7	822624.0
tauS_c8	856750.0
tauS_c9	0.0
tauS_d0	-0.0
tauS_dN	0.0
x_c10_c9	1.0
x_c11_c3	1.0
x_c12_dN	1.0
x_c1_c10	1.0
x_c2_dN	1.0
x_c3_c8	1.0
x_c4_c2	1.0
x_c5_c12	1.0
x_c6_dN	1.0
x_c7_c6	1.0
x_c8_dN	1.0
x_c9_c4	1.0
x_d0_c1	1.0
x_d0_c11	1.0
x_d0_c5	1.0
x_d0_c7	1.0
